p cnf 38 101
a 10 21 0
e 1 2 3 4 5 6 7 8 9 11 12 13 14 15 16 17 18 19 20 22 23 24 25 26 27 28 29 30 31 32 33 34 35 36 37 38 0
3 1 0
3 2 0
-1 -2 -3 0
3 4 -5 0
-3 -4 -5 0
3 -4 5 0
-3 4 5 0
-6 -7 -8 0
6 7 -8 0
-6 7 8 0
6 -7 8 0
-10 -8 0
-10 -9 0
8 9 10 0
11 -12 -13 0
-11 12 -13 0
11 12 13 0
-11 -12 13 0
-14 -13 0
-14 -12 0
13 12 14 0
-10 -14 -15 0
10 14 -15 0
-10 14 15 0
10 -14 15 0
-16 -5 0
-16 -15 0
5 15 16 0
17 -10 0
17 -2 0
10 2 -17 0
-18 -8 0
-18 -17 0
8 17 18 0
8 -10 -19 0
-8 10 -19 0
8 10 19 0
-8 -10 19 0
-20 19 0
-20 19 0
-19 20 0
-22 -6 0
-22 21 0
6 -21 22 0
23 -7 0
23 -22 0
7 22 -23 0
24 13 0
24 -4 0
-13 4 -24 0
-25 -23 0
-25 -24 0
23 24 25 0
-26 -20 0
-26 25 0
20 -25 26 0
-27 2 0
-27 -19 0
-2 19 27 0
29 28 0
29 1 0
-28 -1 -29 0
-30 27 0
-30 -29 0
-27 29 30 0
-31 -13 0
-31 -2 0
13 2 31 0
22 -6 -32 0
-22 6 -32 0
22 6 32 0
-22 -6 32 0
33 32 0
33 -13 0
-32 13 -33 0
34 31 0
34 -33 0
-31 33 -34 0
-35 -30 0
-35 -34 0
30 34 35 0
26 -35 -36 0
-26 35 -36 0
26 35 36 0
-26 -35 36 0
-37 18 0
-37 36 0
-18 -36 37 0
38 16 0
38 37 0
-16 -37 -38 0
-14 1 -6 0
38 -35 -4 -3 0
-38 25 32 27 21 -29 0
11 24 -32 16 23 0
29 13 -8 36 -20 15 0
-7 4 20 -19 24 0
26 -27 -11 -7 29 0
18 -8 37 22 0
-20 -27 -10 0
38 0
